NAME : problems/30-tsp/instance-15.tsp
COMMENT : No Comment
TYPE : TSP
DIMENSION: 30
EDGE_WEIGHT_TYPE : EUC_2D
NODE_COORD_SECTION
1 3555 3352 
2 407 1796 
3 735 6632 
4 7527 5726 
5 445 8259 
6 330 7456 
7 7114 7491 
8 9657 8311 
9 9689 2840 
10 392 2601 
11 5638 25 
12 4650 9559 
13 4309 8465 
14 5180 9031 
15 91 7273 
16 9578 3115 
17 9072 6595 
18 8526 4217 
19 3840 8499 
20 9276 3541 
21 5034 6895 
22 686 5262 
23 6450 7413 
24 6386 6526 
25 6992 434 
26 1503 5962 
27 2715 1051 
28 7465 8724 
29 6767 543 
30 4588 4229 
EOF
